####################################################################### 
# 
# This file contains crystal structure data downloaded from the 
# Cambridge Structural Database (CSD) hosted by the Cambridge 
# Crystallographic Data Centre (CCDC).
# 
# Full information about CCDC data access policies and citation 
# guidelines are available at http://www.ccdc.cam.ac.uk/access/V1 
# 
# Audit and citation data items may have been added by the CCDC. 
# Please retain this information to preserve the provenance of 
# this file and to allow appropriate attribution of the data. 
# 
#######################################################################

data_mof200
_audit_block_doi                 10.5517/ccv159b
_database_code_depnum_ccdc_archive 'CCDC 775691'
loop_
_citation_id
_citation_doi
_citation_year
1 10.1126/science.1192160 2010
_audit_update_record             
;
2010-05-02 deposited with the CCDC.	2020-01-14 downloaded from the CCDC.
;
#TrackingRef 'MOF200.cif'


_audit_creation_method           SHELXL-97
_chemical_name_systematic        
;
?
;
_chemical_name_common            ?
_chemical_melting_point          ?
_chemical_formula_moiety         ?
_chemical_formula_sum            'C90 H60 O16 Zn4'
_chemical_formula_weight         1658.86

loop_
_atom_type_symbol
_atom_type_description
_atom_type_scat_dispersion_real
_atom_type_scat_dispersion_imag
_atom_type_scat_source
C C 0.0033 0.0016 'International Tables Vol C Tables 4.2.6.8 and 6.1.1.4'
H H 0.0000 0.0000 'International Tables Vol C Tables 4.2.6.8 and 6.1.1.4'
O O 0.0106 0.0060 'International Tables Vol C Tables 4.2.6.8 and 6.1.1.4'
Zn Zn 0.2839 1.4301 'International Tables Vol C Tables 4.2.6.8 and 6.1.1.4'

_symmetry_cell_setting           Trigonal
_symmetry_space_group_name_H-M   P-31c

loop_
_symmetry_equiv_pos_as_xyz
'x, y, z'
'-y, x-y, z'
'-x+y, -x, z'
'-y, -x, -z+1/2'
'-x+y, y, -z+1/2'
'x, x-y, -z+1/2'
'-x, -y, -z'
'y, -x+y, -z'
'x-y, x, -z'
'y, x, z-1/2'
'x-y, -y, z-1/2'
'-x, -x+y, z-1/2'

_cell_length_a                   52.022(3)
_cell_length_b                   52.022(3)
_cell_length_c                   42.316(5)
_cell_angle_alpha                90.00
_cell_angle_beta                 90.00
_cell_angle_gamma                120.00
_cell_volume                     99176(14)
_cell_formula_units_Z            8
_cell_measurement_temperature    100(2)
_cell_measurement_reflns_used    ?
_cell_measurement_theta_min      ?
_cell_measurement_theta_max      ?

_exptl_crystal_description       'hexagonal plate-like'
_exptl_crystal_colour            clear
_exptl_crystal_size_max          0.30
_exptl_crystal_size_mid          0.30
_exptl_crystal_size_min          0.20
_exptl_crystal_density_meas      ?
_exptl_crystal_density_diffrn    0.222
_exptl_crystal_density_method    'not measured'
_exptl_crystal_F_000             6784
_exptl_absorpt_coefficient_mu    0.202
_exptl_absorpt_correction_type   ?
_exptl_absorpt_correction_T_min  0.9419
_exptl_absorpt_correction_T_max  0.9607
_exptl_absorpt_process_details   ?

_exptl_special_details           
;
?
;

_diffrn_ambient_temperature      100(2)
_diffrn_radiation_wavelength     0.77490
_diffrn_radiation_type           synchrotron
_diffrn_radiation_source         'beamline 11.3.1 at ALS'
_diffrn_radiation_monochromator  graphite
_diffrn_measurement_device_type  'Bruker Platium 200 diffractometer'
_diffrn_measurement_method       ?
_diffrn_detector_area_resol_mean ?
_diffrn_standards_number         ?
_diffrn_standards_interval_count ?
_diffrn_standards_interval_time  ?
_diffrn_standards_decay_%        ?
_diffrn_reflns_number            377015
_diffrn_reflns_av_R_equivalents  0.1164
_diffrn_reflns_av_sigmaI/netI    0.0436
_diffrn_reflns_limit_h_min       -41
_diffrn_reflns_limit_h_max       41
_diffrn_reflns_limit_k_min       -41
_diffrn_reflns_limit_k_max       41
_diffrn_reflns_limit_l_min       -33
_diffrn_reflns_limit_l_max       33
_diffrn_reflns_theta_min         2.15
_diffrn_reflns_theta_max         18.14
_reflns_number_total             17914
_reflns_number_gt                13989
_reflns_threshold_expression     >2sigma(I)

_computing_data_collection       'Bruker APEX-2'
_computing_cell_refinement       'Bruker SAINT'
_computing_data_reduction        'Bruker SAINT'
_computing_structure_solution    'SHELXS-97 (Sheldrick, 1990)'
_computing_structure_refinement  'SHELXL-97 (Sheldrick, 1997)'
_computing_molecular_graphics    'Bruker XP'
_computing_publication_material  'Bruker XCIF'

_refine_special_details          
;
Refinement of F^2^ against ALL reflections. The weighted R-factor wR and
goodness of fit S are based on F^2^, conventional R-factors R are based
on F, with F set to zero for negative F^2^. The threshold expression of
F^2^ > 2sigma(F^2^) is used only for calculating R-factors(gt) etc. and is
not relevant to the choice of reflections for refinement. R-factors based
on F^2^ are statistically about twice as large as those based on F, and R-
factors based on ALL data will be even larger.
;

_refine_ls_structure_factor_coef Fsqd
_refine_ls_matrix_type           full
_refine_ls_weighting_scheme      calc
_refine_ls_weighting_details     
'calc w=1/[\s^2^(Fo^2^)+(0.1329P)^2^+6.2360P] where P=(Fo^2^+2Fc^2^)/3'
_atom_sites_solution_primary     direct
_atom_sites_solution_secondary   difmap
_atom_sites_solution_hydrogens   geom
_refine_ls_hydrogen_treatment    mixed
_refine_ls_extinction_method     none
_refine_ls_extinction_coef       ?
_refine_ls_number_reflns         17914
_refine_ls_number_parameters     615
_refine_ls_number_restraints     387
_refine_ls_R_factor_all          0.0914
_refine_ls_R_factor_gt           0.0686
_refine_ls_wR_factor_ref         0.2005
_refine_ls_wR_factor_gt          0.1855
_refine_ls_goodness_of_fit_ref   1.051
_refine_ls_restrained_S_all      1.168
_refine_ls_shift/su_max          0.029
_refine_ls_shift/su_mean         0.001

loop_
_atom_site_label
_atom_site_type_symbol
_atom_site_fract_x
_atom_site_fract_y
_atom_site_fract_z
_atom_site_U_iso_or_equiv
_atom_site_adp_type
_atom_site_occupancy
_atom_site_symmetry_multiplicity
_atom_site_calc_flag
_atom_site_refinement_flags
_atom_site_disorder_assembly
_atom_site_disorder_group
Zn1 Zn 0.207963(15) 0.356706(14) 0.257987(14) 0.1186(3) Uani 1 1 d . . .
Zn2 Zn 0.147416(16) 0.307032(16) 0.287056(16) 0.1363(4) Uani 1 1 d . . .
Zn3 Zn 0.36516(2) 0.70424(2) 0.77190(3) 0.0974(4) Uani 0.50 1 d P . .
Zn4 Zn 0.3333 0.6667 0.70985(5) 0.0820(6) Uani 0.50 3 d SP . .
O1 O 0.17654(14) 0.32442(13) 0.32146(9) 0.180(2) Uani 1 1 d D . .
O2 O 0.21832(12) 0.35699(11) 0.30295(11) 0.1555(16) Uani 1 1 d D . .
O3 O 0.34757(10) 0.23388(9) 0.73179(11) 0.1447(15) Uani 1 1 d D . .
O4 O 0.31443(11) 0.19838(12) 0.70001(10) 0.1616(16) Uani 1 1 d D . .
O5 O 0.33101(19) 0.62854(18) 0.69092(15) 0.120(3) Uani 0.50 1 d PD . .
O6 O 0.3391(2) 0.61155(19) 0.73345(18) 0.116(3) Uani 0.50 1 d PD . .
O5' O 0.3053(3) 0.6072(3) 0.7046(3) 0.201(5) Uani 0.50 1 d PD A .
O6' O 0.3529(2) 0.62476(19) 0.7098(3) 0.143(4) Uani 0.50 1 d PD . .
O7 O 0.22039(9) 0.39862(11) 0.24841(10) 0.1325(16) Uani 1 1 d D . .
O8 O 0.12827(15) 0.26587(10) 0.2756(2) 0.284(4) Uani 1 1 d D . .
O9 O 0.3333 0.6667 0.7500 0.102(2) Uani 1 6 d S . .
O10 O 0.16660(4) 0.33319(8) 0.2500 0.0786(12) Uani 1 2 d S . .
O11 O 0.18239(8) 0.31056(11) 0.26933(10) 0.198(2) Uani 1 1 d . . .
O12 O 0.19636(9) 0.36204(9) 0.21753(11) 0.1712(16) Uani 1 1 d . . .
C1 C 0.28431(6) 0.39102(7) 0.54708(8) 0.205(4) Uani 1 1 d GD . .
C2 C 0.28979(9) 0.37105(9) 0.56337(9) 0.219(4) Uani 1 1 d GD . .
H2 H 0.2868 0.3538 0.5535 0.263 Uiso 1 1 calc R . .
C3 C 0.29979(10) 0.37688(10) 0.59442(9) 0.198(4) Uani 1 1 d GD . .
C4 C 0.30431(9) 0.40268(10) 0.60919(9) 0.204(4) Uani 1 1 d GD A .
H4 H 0.3110 0.4066 0.6300 0.245 Uiso 1 1 calc R . .
C5 C 0.29883(10) 0.42265(9) 0.59290(9) 0.213(4) Uani 1 1 d G . .
C6 C 0.28883(9) 0.41682(8) 0.56185(9) 0.206(4) Uani 1 1 d GD A .
H6 H 0.2852 0.4302 0.5509 0.247 Uiso 1 1 calc R . .
C7 C 0.24957(7) 0.37122(6) 0.45209(8) 0.185(3) Uani 1 1 d G . .
C8 C 0.24170(8) 0.34820(6) 0.47351(8) 0.346(8) Uani 1 1 d GD . .
H8 H 0.2291 0.3287 0.4673 0.415 Uiso 1 1 calc R . .
C9 C 0.25263(8) 0.35439(6) 0.50420(8) 0.381(9) Uani 1 1 d GD . .
H9 H 0.2474 0.3390 0.5185 0.457 Uiso 1 1 calc R . .
C10 C 0.27143(6) 0.38358(6) 0.51350(8) 0.208(4) Uani 1 1 d G . .
C11 C 0.27929(8) 0.40658(6) 0.49209(8) 0.335(8) Uani 1 1 d GD . .
H11 H 0.2919 0.4261 0.4983 0.402 Uiso 1 1 calc R . .
C12 C 0.26837(8) 0.40041(6) 0.46138(8) 0.297(6) Uani 1 1 d GD . .
H12 H 0.2736 0.4158 0.4471 0.356 Uiso 1 1 calc R . .
C13 C 0.21481(11) 0.35098(10) 0.35695(9) 0.152(3) Uani 1 1 d GD . .
C14 C 0.19745(10) 0.33527(10) 0.38269(9) 0.256(5) Uani 1 1 d GD . .
H14 H 0.1779 0.3204 0.3796 0.307 Uiso 1 1 calc R . .
C15 C 0.20933(9) 0.34187(9) 0.41300(9) 0.270(5) Uani 1 1 d GD . .
H15 H 0.1977 0.3314 0.4302 0.324 Uiso 1 1 calc R . .
C16 C 0.23856(8) 0.36418(7) 0.41756(8) 0.174(3) Uani 1 1 d G . .
C17 C 0.25592(10) 0.37989(9) 0.39182(8) 0.235(4) Uani 1 1 d GD . .
H17 H 0.2755 0.3948 0.3949 0.282 Uiso 1 1 calc R . .
C18 C 0.24405(11) 0.37329(10) 0.36151(8) 0.207(4) Uani 1 1 d GD . .
H18 H 0.2557 0.3838 0.3443 0.249 Uiso 1 1 calc R . .
C19 C 0.2002(2) 0.34619(18) 0.32480(19) 0.181(4) Uani 1 1 d D . .
C20 C 0.30605(13) 0.35645(11) 0.61265(12) 0.200(3) Uani 1 1 d GD . .
C21 C 0.29349(13) 0.32782(12) 0.60060(10) 0.351(8) Uani 1 1 d GD . .
H21 H 0.2827 0.3230 0.5819 0.421 Uiso 1 1 calc R . .
C22 C 0.29709(10) 0.30646(10) 0.61652(9) 0.359(8) Uani 1 1 d GD . .
H22 H 0.2887 0.2873 0.6085 0.431 Uiso 1 1 calc R . .
C23 C 0.31324(7) 0.31372(8) 0.64449(8) 0.205(3) Uani 1 1 d GD . .
C24 C 0.32580(11) 0.34235(9) 0.65654(10) 0.378(9) Uani 1 1 d GD . .
H24 H 0.3366 0.3472 0.6753 0.453 Uiso 1 1 calc R . .
C25 C 0.32220(13) 0.36372(10) 0.64062(12) 0.373(9) Uani 1 1 d GD . .
H25 H 0.3306 0.3829 0.6487 0.447 Uiso 1 1 calc R . .
C26 C 0.31712(6) 0.28841(8) 0.65852(8) 0.188(3) Uani 1 1 d GDU . .
C27 C 0.30435(9) 0.25865(8) 0.65027(10) 0.237(4) Uani 1 1 d GDU . .
H27 H 0.2921 0.2514 0.6326 0.284 Uiso 1 1 calc R . .
C28 C 0.30987(11) 0.23965(9) 0.66839(12) 0.220(4) Uani 1 1 d GDU . .
H28 H 0.3013 0.2197 0.6629 0.264 Uiso 1 1 calc R . .
C29 C 0.32816(10) 0.25040(11) 0.69477(11) 0.153(2) Uani 1 1 d GDU . .
C30 C 0.34093(10) 0.28017(11) 0.70302(10) 0.197(3) Uani 1 1 d GDU . .
H30 H 0.3532 0.2874 0.7207 0.237 Uiso 1 1 calc R . .
C31 C 0.33541(8) 0.29917(9) 0.68490(9) 0.202(3) Uani 1 1 d GDU . .
H31 H 0.3440 0.3191 0.6904 0.242 Uiso 1 1 calc R . .
C32 C 0.32991(17) 0.22500(18) 0.71005(17) 0.171(3) Uani 1 1 d D . .
C33 C 0.3053(2) 0.45231(18) 0.6086(2) 0.216(4) Uani 1 1 d G A 1
C34 C 0.3289(3) 0.4671(3) 0.6294(3) 0.190(12) Uani 0.50 1 d PGD A 1
H34 H 0.3416 0.4597 0.6334 0.228 Uiso 0.50 1 calc PR A 1
C35 C 0.3336(3) 0.4929(3) 0.6443(3) 0.184(13) Uani 0.50 1 d PGD A 1
H35 H 0.3494 0.5028 0.6582 0.221 Uiso 0.50 1 calc PR A 1
C36 C 0.3146(3) 0.5039(2) 0.6384(3) 0.190(4) Uani 1 1 d G A 1
C37 C 0.2910(3) 0.4891(3) 0.6175(4) 0.272(19) Uani 0.50 1 d PGD A 1
H37 H 0.2783 0.4965 0.6135 0.326 Uiso 0.50 1 calc PR A 1
C38 C 0.2864(3) 0.4633(3) 0.6026(3) 0.219(16) Uani 0.50 1 d PGD A 1
H38 H 0.2706 0.4535 0.5887 0.263 Uiso 0.50 1 calc PR A 1
C34' C 0.3057(8) 0.4552(6) 0.6406(5) 0.280(18) Uani 0.50 1 d PD A 2
H34A H 0.3027 0.4397 0.6539 0.336 Uiso 0.50 1 calc PR A 2
C35' C 0.3109(8) 0.4822(5) 0.6524(5) 0.234(16) Uani 0.50 1 d PD A 2
H35A H 0.3115 0.4837 0.6743 0.281 Uiso 0.50 1 calc PR A 2
C37' C 0.3077(11) 0.4992(7) 0.6087(6) 0.38(2) Uani 0.50 1 d PD A 2
H37A H 0.3019 0.5112 0.5983 0.450 Uiso 0.50 1 calc PR A 2
C38' C 0.3086(10) 0.4766(6) 0.5916(6) 0.295(19) Uani 0.50 1 d PD A 2
H38A H 0.3113 0.4778 0.5699 0.354 Uiso 0.50 1 calc PR A 2
C39 C 0.31676(17) 0.52858(13) 0.65497(13) 0.218(4) Uani 1 1 d G . .
C40 C 0.34114(16) 0.54427(16) 0.67465(17) 0.371(5) Uani 1 1 d GD A .
H40 H 0.3543 0.5374 0.6781 0.445 Uiso 1 1 calc R . .
C41 C 0.34581(13) 0.57024(15) 0.68914(18) 0.357(5) Uani 1 1 d GD A .
H41 H 0.3621 0.5807 0.7023 0.429 Uiso 1 1 calc R . .
C42 C 0.32612(15) 0.58053(12) 0.68395(17) 0.222(4) Uani 1 1 d GD A .
C43 C 0.30175(15) 0.56484(16) 0.66427(18) 0.357(5) Uani 1 1 d GDU A .
H43 H 0.2886 0.5717 0.6608 0.429 Uiso 1 1 calc R . .
C44 C 0.29707(15) 0.53886(15) 0.64979(16) 0.371(5) Uani 1 1 d GDU A .
H44 H 0.2808 0.5284 0.6366 0.445 Uiso 1 1 calc R . .
C45 C 0.3304(2) 0.6062(2) 0.7044(2) 0.180(4) Uani 1 1 d DU . .
C46 C 0.20516(11) 0.4103(2) 0.2500 0.129(4) Uani 1 2 d SD . .
C47 C 0.22171(14) 0.4434(3) 0.2500 0.133(4) Uani 1 2 d SD . .
C48 C 0.25154(14) 0.45922(17) 0.24744(18) 0.176(3) Uani 1 1 d D . .
H48 H 0.2619 0.4490 0.2456 0.211 Uiso 1 1 calc R . .
C49 C 0.26733(13) 0.48989(19) 0.24739(19) 0.194(3) Uani 1 1 d D . .
H49 H 0.2879 0.4996 0.2456 0.233 Uiso 1 1 calc R . .
C50 C 0.25335(13) 0.5067(3) 0.2500 0.178(4) Uani 1 2 d SD . .
C51 C 0.27093(11) 0.5419(2) 0.2500 0.198(5) Uani 1 2 d SD . .
C52 C 0.30049(16) 0.5575(2) 0.2450(4) 0.420(11) Uani 1 1 d D . .
H52 H 0.3106 0.5476 0.2399 0.504 Uiso 1 1 calc R . .
C53 C 0.31591(14) 0.58787(19) 0.2473(4) 0.391(10) Uani 1 1 d D . .
H53 H 0.3365 0.5980 0.2469 0.469 Uiso 1 1 calc R . .
C54 C 0.30156(14) 0.6031(3) 0.2500 0.196(5) Uani 1 2 d SD . .
C55 C 0.31829(8) 0.63658(15) 0.2500 0.211(5) Uani 1 2 d SD . .
C56 C 0.34837(7) 0.65163(7) 0.2500 0.240(7) Uani 1 2 d SD . .
H56A H 0.3587 0.6413 0.2500 0.288 Uiso 1 2 calc SR . .
C57 C 0.1270(2) 0.2539(4) 0.2500 0.227(7) Uani 1 2 d SDU . .
C58 C 0.11021(12) 0.2204(2) 0.2500 0.251(9) Uani 1 2 d SD . .
C59 C 0.1070(3) 0.2063(2) 0.22281(16) 0.317(7) Uani 1 1 d D . .
H59 H 0.1154 0.2167 0.2043 0.380 Uiso 1 1 calc R . .
C60 C 0.0909(3) 0.1752(2) 0.22279(17) 0.291(6) Uani 1 1 d D . .
H60 H 0.0876 0.1651 0.2038 0.350 Uiso 1 1 calc R . .
C61 C 0.07975(16) 0.1595(3) 0.2500 0.212(6) Uani 1 2 d SD . .
C62 C 0.06249(14) 0.1250(3) 0.2500 0.250(7) Uani 1 2 d SD . .
C63 C 0.03344(16) 0.1095(2) 0.2579(3) 0.433(12) Uani 1 1 d D . .
H63 H 0.0232 0.1195 0.2620 0.519 Uiso 1 1 calc R . .
C64 C 0.01900(16) 0.0794(2) 0.2598(3) 0.459(13) Uani 1 1 d D . .
H64 H -0.0002 0.0690 0.2679 0.551 Uiso 1 1 calc R . .
C65 C 0.03263(10) 0.0653(2) 0.2500 0.227(6) Uani 1 2 d SD . .
C66 C 0.01497(8) 0.02993(16) 0.2500 0.178(4) Uani 1 2 d SDU . .
C67 C 0.03016(13) 0.01508(7) 0.2500 0.212(6) Uani 1 2 d SD . .
H67A H 0.0508 0.0254 0.2500 0.254 Uiso 1 2 calc SR . .

loop_
_atom_site_aniso_label
_atom_site_aniso_U_11
_atom_site_aniso_U_22
_atom_site_aniso_U_33
_atom_site_aniso_U_23
_atom_site_aniso_U_13
_atom_site_aniso_U_12
Zn1 0.1380(6) 0.1160(6) 0.1067(6) -0.0070(4) -0.0072(4) 0.0672(5)
Zn2 0.1481(7) 0.1272(6) 0.1155(6) 0.0116(4) 0.0022(5) 0.0552(5)
Zn3 0.0921(9) 0.0948(9) 0.1017(9) -0.0100(7) -0.0028(7) 0.0440(7)
Zn4 0.0701(9) 0.0701(9) 0.1059(18) 0.000 0.000 0.0350(4)
O1 0.237(6) 0.181(5) 0.089(3) -0.007(3) -0.041(4) 0.080(4)
O2 0.196(5) 0.183(4) 0.113(4) -0.040(3) -0.053(3) 0.114(4)
O3 0.173(4) 0.114(3) 0.153(4) -0.009(3) -0.031(3) 0.077(3)
O4 0.193(4) 0.186(5) 0.127(3) -0.021(3) -0.042(3) 0.110(4)
O5 0.096(6) 0.149(8) 0.058(5) -0.012(5) 0.004(4) 0.018(6)
O6 0.152(7) 0.107(6) 0.119(7) 0.036(6) 0.001(6) 0.088(6)
O5' 0.317(15) 0.208(12) 0.162(9) -0.074(9) -0.081(11) 0.194(13)
O6' 0.187(10) 0.081(7) 0.167(10) -0.065(7) -0.075(9) 0.071(7)
O7 0.119(4) 0.093(3) 0.185(4) -0.007(3) 0.009(2) 0.052(3)
O8 0.242(6) 0.085(4) 0.448(12) -0.011(5) 0.063(7) 0.024(4)
O9 0.104(4) 0.104(4) 0.097(7) 0.000 0.000 0.052(2)
O10 0.0677(19) 0.087(3) 0.087(3) 0.000 -0.032(2) 0.0436(15)
O11 0.117(3) 0.216(5) 0.152(4) -0.075(3) 0.037(3) 0.002(3)
O12 0.170(4) 0.135(3) 0.203(4) 0.004(3) -0.016(3) 0.071(3)
C1 0.379(11) 0.203(8) 0.117(6) -0.078(5) -0.117(6) 0.209(8)
C2 0.410(12) 0.216(8) 0.141(6) -0.082(6) -0.145(7) 0.239(8)
C3 0.368(10) 0.182(7) 0.136(6) -0.073(6) -0.120(6) 0.205(8)
C4 0.394(11) 0.203(7) 0.124(6) -0.043(5) -0.116(6) 0.231(8)
C5 0.389(11) 0.224(8) 0.132(6) -0.106(6) -0.145(7) 0.232(8)
C6 0.375(11) 0.188(7) 0.135(6) -0.057(5) -0.108(6) 0.202(8)
C7 0.285(9) 0.186(8) 0.133(7) -0.041(5) -0.102(6) 0.155(7)
C8 0.70(2) 0.275(11) 0.201(9) -0.136(8) -0.256(12) 0.349(14)
C9 0.83(3) 0.272(11) 0.181(8) -0.126(8) -0.277(12) 0.377(16)
C10 0.359(11) 0.185(8) 0.145(7) -0.063(6) -0.136(7) 0.185(8)
C11 0.66(2) 0.269(11) 0.185(8) -0.134(8) -0.268(12) 0.320(14)
C12 0.549(18) 0.192(8) 0.199(8) -0.075(7) -0.192(10) 0.222(11)
C13 0.195(8) 0.146(6) 0.131(8) -0.011(6) -0.008(7) 0.096(6)
C14 0.220(9) 0.317(12) 0.132(7) -0.034(7) -0.060(7) 0.060(8)
C15 0.234(10) 0.392(14) 0.094(6) 0.003(7) -0.038(6) 0.088(9)
C16 0.234(9) 0.179(7) 0.134(7) -0.033(5) -0.081(7) 0.122(7)
C17 0.263(10) 0.262(10) 0.141(7) -0.009(7) -0.064(7) 0.102(8)
C18 0.280(10) 0.217(8) 0.098(6) 0.012(6) -0.035(6) 0.105(8)
C19 0.191(9) 0.156(7) 0.079(6) -0.042(6) 0.013(6) -0.001(6)
C20 0.365(11) 0.155(7) 0.157(7) -0.036(5) -0.071(7) 0.187(8)
C21 0.74(2) 0.275(11) 0.202(9) -0.091(8) -0.234(12) 0.373(15)
C22 0.75(2) 0.293(12) 0.190(8) -0.134(8) -0.254(12) 0.381(15)
C23 0.324(10) 0.200(8) 0.178(7) -0.044(6) -0.102(7) 0.195(8)
C24 0.78(2) 0.268(11) 0.259(10) -0.137(8) -0.322(13) 0.390(15)
C25 0.75(2) 0.338(13) 0.182(8) -0.149(9) -0.299(12) 0.384(16)
C26 0.198(6) 0.201(7) 0.174(6) 0.015(5) -0.063(5) 0.106(5)
C27 0.260(8) 0.198(7) 0.241(7) -0.028(6) -0.044(6) 0.106(6)
C28 0.261(8) 0.179(6) 0.255(8) 0.023(6) -0.038(6) 0.135(6)
C29 0.156(5) 0.167(6) 0.150(5) 0.001(5) -0.063(4) 0.090(5)
C30 0.209(7) 0.166(6) 0.193(6) -0.029(5) -0.047(5) 0.076(5)
C31 0.245(7) 0.160(6) 0.231(7) 0.020(5) -0.046(6) 0.125(5)
C32 0.190(8) 0.142(8) 0.135(7) -0.060(6) -0.063(6) 0.047(6)
C33 0.427(15) 0.236(10) 0.115(8) -0.042(8) -0.107(9) 0.262(11)
C34 0.30(2) 0.24(3) 0.133(18) -0.095(15) -0.123(15) 0.21(2)
C35 0.29(3) 0.21(2) 0.164(17) -0.059(15) -0.096(16) 0.21(2)
C36 0.325(12) 0.158(9) 0.178(11) -0.049(8) -0.077(8) 0.189(10)
C37 0.38(3) 0.25(4) 0.31(5) -0.06(3) -0.12(3) 0.25(3)
C38 0.39(3) 0.23(2) 0.13(2) -0.055(19) -0.14(2) 0.23(2)
C34' 0.59(6) 0.26(2) 0.142(16) -0.06(2) -0.17(3) 0.33(4)
C35' 0.46(5) 0.161(19) 0.151(19) -0.086(16) -0.14(3) 0.21(3)
C37' 0.92(7) 0.31(3) 0.098(12) -0.16(2) -0.24(3) 0.46(5)
C38' 0.64(6) 0.32(4) 0.080(14) -0.05(2) -0.10(3) 0.35(4)
C39 0.438(13) 0.219(8) 0.142(6) -0.049(6) -0.100(7) 0.274(9)
C40 0.547(10) 0.288(6) 0.409(9) -0.228(6) -0.150(7) 0.306(7)
C41 0.422(9) 0.355(8) 0.420(9) -0.142(7) -0.162(7) 0.289(7)
C42 0.210(8) 0.105(5) 0.354(12) -0.132(7) -0.078(7) 0.079(5)
C43 0.422(9) 0.355(8) 0.420(9) -0.142(7) -0.162(7) 0.289(7)
C44 0.547(10) 0.288(6) 0.409(9) -0.228(6) -0.150(7) 0.306(7)
C45 0.216(9) 0.156(8) 0.180(8) 0.065(6) -0.059(6) 0.103(7)
C46 0.130(10) 0.033(8) 0.191(9) 0.000 -0.020(8) 0.016(4)
C47 0.078(4) 0.154(14) 0.194(8) 0.000 0.001(5) 0.077(7)
C48 0.113(7) 0.077(5) 0.340(10) -0.023(5) 0.000(6) 0.049(6)
C49 0.089(6) 0.119(6) 0.381(11) -0.013(6) 0.009(5) 0.058(6)
C50 0.105(5) 0.139(13) 0.302(13) 0.000 -0.027(7) 0.069(7)
C51 0.116(7) 0.061(9) 0.401(16) 0.000 0.003(8) 0.030(5)
C52 0.069(6) 0.143(9) 1.04(4) -0.019(13) 0.027(11) 0.049(7)
C53 0.103(8) 0.042(5) 1.00(3) -0.022(9) 0.040(10) 0.015(6)
C54 0.111(6) 0.079(10) 0.387(16) 0.000 0.014(8) 0.040(5)
C55 0.092(6) 0.089(15) 0.450(18) 0.000 0.022(9) 0.045(7)
C56 0.087(7) 0.087(7) 0.54(2) 0.012(9) 0.012(9) 0.039(11)
C57 0.234(9) 0.207(11) 0.233(10) 0.000 0.035(8) 0.104(6)
C58 0.229(11) 0.050(10) 0.41(3) 0.000 0.123(15) 0.025(5)
C59 0.413(16) 0.075(8) 0.330(15) 0.018(9) 0.058(13) 0.024(10)
C60 0.351(15) 0.122(10) 0.291(13) -0.032(10) 0.013(11) 0.036(10)
C61 0.155(7) 0.109(16) 0.36(2) 0.000 0.047(11) 0.054(8)
C62 0.156(9) 0.068(12) 0.50(2) 0.000 0.097(11) 0.034(6)
C63 0.110(7) 0.100(8) 1.07(4) -0.048(13) 0.065(13) 0.041(8)
C64 0.098(8) 0.072(7) 1.20(4) -0.023(12) 0.011(11) 0.039(6)
C65 0.104(6) 0.059(8) 0.50(2) 0.000 0.008(9) 0.030(4)
C66 0.151(6) 0.160(8) 0.224(8) 0.000 -0.011(6) 0.080(4)
C67 0.080(7) 0.079(5) 0.477(19) -0.002(8) 0.000 0.040(4)

_geom_special_details            
;
All esds (except the esd in the dihedral angle between two l.s. planes)
are estimated using the full covariance matrix. The cell esds are taken
into account individually in the estimation of esds in distances, angles
and torsion angles; correlations between esds in cell parameters are only
used when they are defined by crystal symmetry. An approximate (isotropic)
treatment of cell esds is used for estimating esds involving l.s. planes.
;

loop_
_geom_bond_atom_site_label_1
_geom_bond_atom_site_label_2
_geom_bond_distance
_geom_bond_site_symmetry_2
_geom_bond_publ_flag
Zn1 O12 1.881(4) . ?
Zn1 O10 1.900(2) . ?
Zn1 O2 1.975(4) . ?
Zn1 O3 1.978(4) 10 ?
Zn1 O7 1.982(5) . ?
Zn1 O11 2.138(5) . ?
Zn1 Zn1 3.1540(13) 5 ?
Zn1 Zn2 3.1579(10) . ?
Zn2 O11 1.890(4) . ?
Zn2 O8 1.918(5) . ?
Zn2 O4 1.933(5) 9_556 ?
Zn2 O1 1.965(5) . ?
Zn2 O10 1.987(2) . ?
Zn3 O6' 1.829(8) 6_566 ?
Zn3 O5' 2.003(9) 4_666 ?
Zn3 Zn4 1.9804(14) 4_666 ?
Zn3 O6 2.030(8) 2_665 ?
Zn3 O9 2.0457(11) . ?
Zn3 O6 2.237(8) 6_566 ?
Zn3 Zn3 2.297(2) 5_556 ?
Zn3 O5 2.340(8) 6_566 ?
Zn3 Zn3 2.918(2) 6_566 ?
Zn3 Zn3 3.159(2) 3_565 ?
Zn3 Zn3 3.159(2) 2_665 ?
Zn4 O9 1.699(2) . ?
Zn4 Zn3 1.9804(14) 5_556 ?
Zn4 Zn3 1.9804(14) 4_666 ?
Zn4 Zn3 1.9803(14) 6_566 ?
Zn4 O5 2.086(9) 3_565 ?
Zn4 O5 2.086(9) 2_665 ?
Zn4 O5 2.086(9) . ?
O1 C19 1.193(7) . ?
O2 C19 1.237(7) . ?
O3 C32 1.216(6) . ?
O3 Zn1 1.978(4) 10_556 ?
O4 C32 1.277(7) . ?
O4 Zn2 1.933(5) 8_556 ?
O5 C45 1.281(10) . ?
O5 Zn3 2.340(8) 6_566 ?
O6 C45 1.292(10) . ?
O6 Zn3 2.030(8) 3_565 ?
O6 Zn3 2.237(8) 6_566 ?
O5' C45 1.335(11) . ?
O5' Zn3 2.003(9) 4_666 ?
O6' C45 1.107(9) . ?
O6' Zn3 1.829(8) 6_566 ?
O7 C46 1.218(4) . ?
O8 C57 1.234(7) . ?
O9 Zn4 1.699(2) 4_666 ?
O9 Zn3 2.0457(11) 5_556 ?
O9 Zn3 2.0457(11) 2_665 ?
O9 Zn3 2.0457(11) 4_666 ?
O9 Zn3 2.0457(11) 6_566 ?
O9 Zn3 2.0457(11) 3_565 ?
O10 Zn1 1.900(2) 5 ?
O10 Zn2 1.987(2) 5 ?
C1 C2 1.3900 . ?
C1 C6 1.3900 . ?
C1 C10 1.5356 . ?
C2 C3 1.3900 . ?
C3 C4 1.3900 . ?
C3 C20 1.475(5) . ?
C4 C5 1.3900 . ?
C5 C6 1.3900 . ?
C5 C33 1.553(7) . ?
C7 C12 1.3901 . ?
C7 C8 1.3903 . ?
C7 C16 1.5449 . ?
C8 C9 1.3897 . ?
C9 C10 1.3900 . ?
C10 C11 1.3895 . ?
C11 C12 1.3903 . ?
C13 C14 1.3899 . ?
C13 C18 1.3901 . ?
C13 C19 1.517(8) . ?
C14 C15 1.3899 . ?
C15 C16 1.3899 . ?
C16 C17 1.3900 . ?
C17 C18 1.3900 . ?
C20 C21 1.3900 . ?
C20 C25 1.3900 . ?
C21 C22 1.3900 . ?
C22 C23 1.3900 . ?
C23 C24 1.3900 . ?
C23 C26 1.5467 . ?
C24 C25 1.3900 . ?
C26 C31 1.3900 . ?
C26 C27 1.3901 . ?
C27 C28 1.3899 . ?
C28 C29 1.3900 . ?
C29 C30 1.3900 . ?
C29 C32 1.514(8) . ?
C30 C31 1.3901 . ?
C33 C34' 1.36(2) . ?
C33 C38' 1.39(2) . ?
C33 C34 1.3900 . ?
C33 C38 1.3900 . ?
C34 C35 1.3900 . ?
C35 C36 1.3900 . ?
C36 C35' 1.20(2) . ?
C36 C37' 1.296(18) . ?
C36 C37 1.3900 . ?
C36 C39 1.418(8) . ?
C37 C38 1.3900 . ?
C34' C35' 1.385(19) . ?
C37' C38' 1.40(2) . ?
C39 C40 1.3900 . ?
C39 C44 1.3900 . ?
C40 C41 1.3900 . ?
C41 C42 1.3900 . ?
C42 C43 1.3900 . ?
C42 C45 1.511(10) . ?
C43 C44 1.3900 . ?
C46 O7 1.218(4) 5 ?
C46 C47 1.492(11) . ?
C47 C48 1.349(6) 5 ?
C47 C48 1.349(6) . ?
C48 C49 1.382(7) . ?
C49 C50 1.394(6) . ?
C50 C49 1.394(6) 5 ?
C50 C51 1.584(12) . ?
C51 C52 1.349(7) . ?
C51 C52 1.349(6) 5 ?
C52 C53 1.370(9) . ?
C53 C54 1.339(6) . ?
C54 C53 1.339(6) 5 ?
C54 C55 1.508(13) . ?
C55 C56 1.355(4) . ?
C55 C56 1.355(4) 3_565 ?
C56 C55 1.355(4) 2_665 ?
C57 O8 1.234(7) 5 ?
C57 C58 1.509(15) . ?
C58 C59 1.331(7) . ?
C58 C59 1.331(7) 5 ?
C59 C60 1.398(10) . ?
C60 C61 1.363(7) . ?
C61 C60 1.363(7) 5 ?
C61 C62 1.555(16) . ?
C62 C63 1.351(7) . ?
C62 C63 1.351(7) 5 ?
C63 C64 1.357(9) . ?
C64 C65 1.319(6) . ?
C65 C64 1.319(6) 5 ?
C65 C66 1.591(11) . ?
C66 C67 1.354(4) 2 ?
C66 C67 1.354(4) . ?
C67 C66 1.354(4) 3 ?

loop_
_geom_angle_atom_site_label_1
_geom_angle_atom_site_label_2
_geom_angle_atom_site_label_3
_geom_angle
_geom_angle_site_symmetry_1
_geom_angle_site_symmetry_3
_geom_angle_publ_flag
O12 Zn1 O10 65.76(14) . . ?
O12 Zn1 O2 169.01(18) . . ?
O10 Zn1 O2 113.14(17) . . ?
O12 Zn1 O3 80.40(19) . 10 ?
O10 Zn1 O3 115.74(15) . 10 ?
O2 Zn1 O3 108.99(19) . 10 ?
O12 Zn1 O7 66.65(18) . . ?
O10 Zn1 O7 108.26(15) . . ?
O2 Zn1 O7 104.54(18) . . ?
O3 Zn1 O7 105.26(17) 10 . ?
O12 Zn1 O11 107.74(17) . . ?
O10 Zn1 O11 56.51(16) . . ?
O2 Zn1 O11 78.84(19) . . ?
O3 Zn1 O11 88.41(17) 10 . ?
O7 Zn1 O11 163.54(17) . . ?
O12 Zn1 Zn1 54.51(14) . 5 ?
O10 Zn1 Zn1 33.89(9) . 5 ?
O2 Zn1 Zn1 117.98(15) . 5 ?
O3 Zn1 Zn1 131.53(14) 10 5 ?
O7 Zn1 Zn1 74.78(11) . 5 ?
O11 Zn1 Zn1 89.35(14) . 5 ?
O12 Zn1 Zn2 102.29(13) . . ?
O10 Zn1 Zn2 36.60(5) . . ?
O2 Zn1 Zn2 77.74(17) . . ?
O3 Zn1 Zn2 122.85(14) 10 . ?
O7 Zn1 Zn2 128.55(11) . . ?
O11 Zn1 Zn2 35.66(12) . . ?
Zn1 Zn1 Zn2 60.59(2) 5 . ?
O11 Zn2 O8 86.9(2) . . ?
O11 Zn2 O4 163.8(2) . 9_556 ?
O8 Zn2 O4 106.0(3) . 9_556 ?
O11 Zn2 O1 76.5(2) . . ?
O8 Zn2 O1 123.5(3) . . ?
O4 Zn2 O1 103.4(2) 9_556 . ?
O11 Zn2 O10 59.40(18) . . ?
O8 Zn2 O10 111.6(3) . . ?
O4 Zn2 O10 105.77(15) 9_556 . ?
O1 Zn2 O10 105.18(18) . . ?
O11 Zn2 Zn1 41.25(16) . . ?
O8 Zn2 Zn1 124.3(2) . . ?
O4 Zn2 Zn1 122.90(14) 9_556 . ?
O1 Zn2 Zn1 71.82(17) . . ?
O10 Zn2 Zn1 34.75(4) . . ?
O6' Zn3 O5' 119.7(5) 6_566 4_666 ?
O6' Zn3 Zn4 95.9(4) 6_566 4_666 ?
O5' Zn3 Zn4 85.0(4) 4_666 4_666 ?
O6' Zn3 O6 103.8(4) 6_566 2_665 ?
O5' Zn3 O6 104.9(5) 4_666 2_665 ?
Zn4 Zn3 O6 149.0(2) 4_666 2_665 ?
O6' Zn3 O9 116.8(4) 6_566 . ?
O5' Zn3 O9 109.1(4) 4_666 . ?
Zn4 Zn3 O9 49.89(6) 4_666 . ?
O6 Zn3 O9 99.5(2) 2_665 . ?
O6' Zn3 O6 33.1(4) 6_566 6_566 ?
O5' Zn3 O6 152.7(4) 4_666 6_566 ?
Zn4 Zn3 O6 98.1(2) 4_666 6_566 ?
O6 Zn3 O6 86.3(5) 2_665 6_566 ?
O9 Zn3 O6 93.0(2) . 6_566 ?
O6' Zn3 Zn3 86.3(4) 6_566 5_556 ?
O5' Zn3 Zn3 153.8(3) 4_666 5_556 ?
Zn4 Zn3 Zn3 96.45(6) 4_666 5_556 ?
O6 Zn3 Zn3 61.9(2) 2_665 5_556 ?
O9 Zn3 Zn3 55.84(3) . 5_556 ?
O6 Zn3 Zn3 53.2(2) 6_566 5_556 ?
O6' Zn3 O5 39.3(4) 6_566 6_566 ?
O5' Zn3 O5 106.4(4) 4_666 6_566 ?
Zn4 Zn3 O5 57.0(3) 4_666 6_566 ?
O6 Zn3 O5 141.0(4) 2_665 6_566 ?
O9 Zn3 O5 91.8(2) . 6_566 ?
O6 Zn3 O5 55.6(3) 6_566 6_566 ?
Zn3 Zn3 O5 96.07(18) 5_556 6_566 ?
O6' Zn3 Zn3 158.2(4) 6_566 6_566 ?
O5' Zn3 Zn3 81.2(3) 4_666 6_566 ?
Zn4 Zn3 Zn3 78.94(6) 4_666 6_566 ?
O6 Zn3 Zn3 73.9(2) 2_665 6_566 ?
O9 Zn3 Zn3 44.50(3) . 6_566 ?
O6 Zn3 Zn3 126.1(2) 6_566 6_566 ?
Zn3 Zn3 Zn3 73.46(6) 5_556 6_566 ?
O5 Zn3 Zn3 133.6(2) 6_566 6_566 ?
O6' Zn3 Zn3 132.9(4) 6_566 3_565 ?
O5' Zn3 Zn3 70.7(4) 4_666 3_565 ?
Zn4 Zn3 Zn3 37.11(3) 4_666 3_565 ?
O6 Zn3 Zn3 118.1(2) 2_665 3_565 ?
O9 Zn3 Zn3 39.46(2) . 3_565 ?
O6 Zn3 Zn3 126.2(2) 6_566 3_565 ?
Zn3 Zn3 Zn3 94.811(17) 5_556 3_565 ?
O5 Zn3 Zn3 94.1(3) 6_566 3_565 ?
Zn3 Zn3 Zn3 44.20(5) 6_566 3_565 ?
O6' Zn3 Zn3 79.8(3) 6_566 2_665 ?
O5' Zn3 Zn3 122.0(4) 4_666 2_665 ?
Zn4 Zn3 Zn3 37.11(3) 4_666 2_665 ?
O6 Zn3 Zn3 123.7(2) 2_665 2_665 ?
O9 Zn3 Zn3 39.46(2) . 2_665 ?
O6 Zn3 Zn3 66.5(2) 6_566 2_665 ?
Zn3 Zn3 Zn3 62.33(5) 5_556 2_665 ?
O5 Zn3 Zn3 52.9(2) 6_566 2_665 ?
Zn3 Zn3 Zn3 83.70(3) 6_566 2_665 ?
Zn3 Zn3 Zn3 60.0 3_565 2_665 ?
O9 Zn4 Zn3 67.05(6) . 5_556 ?
O9 Zn4 Zn3 67.05(6) . 4_666 ?
Zn3 Zn4 Zn3 105.78(7) 5_556 4_666 ?
O9 Zn4 Zn3 67.05(6) . 6_566 ?
Zn3 Zn4 Zn3 105.78(7) 5_556 6_566 ?
Zn3 Zn4 Zn3 105.78(7) 4_666 6_566 ?
O9 Zn4 O5 112.6(2) . 3_565 ?
Zn3 Zn4 O5 77.9(2) 5_556 3_565 ?
Zn3 Zn4 O5 70.2(3) 4_666 3_565 ?
Zn3 Zn4 O5 175.3(3) 6_566 3_565 ?
O9 Zn4 O5 112.6(2) . 2_665 ?
Zn3 Zn4 O5 70.2(3) 5_556 2_665 ?
Zn3 Zn4 O5 175.3(3) 4_666 2_665 ?
Zn3 Zn4 O5 77.9(2) 6_566 2_665 ?
O5 Zn4 O5 106.2(2) 3_565 2_665 ?
O9 Zn4 O5 112.6(2) . . ?
Zn3 Zn4 O5 175.3(3) 5_556 . ?
Zn3 Zn4 O5 77.9(2) 4_666 . ?
Zn3 Zn4 O5 70.2(3) 6_566 . ?
O5 Zn4 O5 106.2(2) 3_565 . ?
O5 Zn4 O5 106.2(2) 2_665 . ?
C19 O1 Zn2 135.8(6) . . ?
C19 O2 Zn1 125.0(6) . . ?
C32 O3 Zn1 123.9(5) . 10_556 ?
C32 O4 Zn2 136.5(5) . 8_556 ?
C45 O5 Zn4 130.9(6) . . ?
C45 O5 Zn3 91.1(6) . 6_566 ?
Zn4 O5 Zn3 52.78(17) . 6_566 ?
C45 O6 Zn3 141.8(7) . 3_565 ?
C45 O6 Zn3 95.6(6) . 6_566 ?
Zn3 O6 Zn3 64.9(2) 3_565 6_566 ?
C45 O5' Zn3 129.1(8) . 4_666 ?
C45 O6' Zn3 131.1(10) . 6_566 ?
C46 O7 Zn1 127.0(5) . . ?
C57 O8 Zn2 130.7(11) . . ?
Zn4 O9 Zn4 180.000(2) 4_666 . ?
Zn4 O9 Zn3 116.94(3) 4_666 5_556 ?
Zn4 O9 Zn3 63.06(3) . 5_556 ?
Zn4 O9 Zn3 63.06(3) 4_666 2_665 ?
Zn4 O9 Zn3 116.94(3) . 2_665 ?
Zn3 O9 Zn3 91.00(6) 5_556 2_665 ?
Zn4 O9 Zn3 63.06(3) 4_666 . ?
Zn4 O9 Zn3 116.94(3) . . ?
Zn3 O9 Zn3 68.31(6) 5_556 . ?
Zn3 O9 Zn3 101.07(4) 2_665 . ?
Zn4 O9 Zn3 116.94(3) 4_666 4_666 ?
Zn4 O9 Zn3 63.06(3) . 4_666 ?
Zn3 O9 Zn3 101.07(4) 5_556 4_666 ?
Zn3 O9 Zn3 68.31(6) 2_665 4_666 ?
Zn3 O9 Zn3 165.45(6) . 4_666 ?
Zn4 O9 Zn3 116.94(3) 4_666 6_566 ?
Zn4 O9 Zn3 63.06(3) . 6_566 ?
Zn3 O9 Zn3 101.07(4) 5_556 6_566 ?
Zn3 O9 Zn3 165.45(6) 2_665 6_566 ?
Zn3 O9 Zn3 91.00(6) . 6_566 ?
Zn3 O9 Zn3 101.07(4) 4_666 6_566 ?
Zn4 O9 Zn3 63.06(3) 4_666 3_565 ?
Zn4 O9 Zn3 116.94(3) . 3_565 ?
Zn3 O9 Zn3 165.45(6) 5_556 3_565 ?
Zn3 O9 Zn3 101.07(4) 2_665 3_565 ?
Zn3 O9 Zn3 101.07(4) . 3_565 ?
Zn3 O9 Zn3 91.00(6) 4_666 3_565 ?
Zn3 O9 Zn3 68.31(6) 6_566 3_565 ?
Zn1 O10 Zn1 112.21(18) . 5 ?
Zn1 O10 Zn2 108.65(3) . . ?
Zn1 O10 Zn2 109.98(3) 5 . ?
Zn1 O10 Zn2 109.98(3) . 5 ?
Zn1 O10 Zn2 108.65(3) 5 5 ?
Zn2 O10 Zn2 107.25(17) . 5 ?
Zn2 O11 Zn1 103.1(3) . . ?
C2 C1 C6 120.0 . . ?
C2 C1 C10 119.8 . . ?
C6 C1 C10 120.1 . . ?
C3 C2 C1 120.0 . . ?
C2 C3 C4 120.0 . . ?
C2 C3 C20 122.1(3) . . ?
C4 C3 C20 117.9(3) . . ?
C5 C4 C3 120.0 . . ?
C4 C5 C6 120.0 . . ?
C4 C5 C33 120.5(4) . . ?
C6 C5 C33 119.5(4) . . ?
C5 C6 C1 120.0 . . ?
C12 C7 C8 120.0 . . ?
C12 C7 C16 120.1 . . ?
C8 C7 C16 119.9 . . ?
C9 C8 C7 120.0 . . ?
C8 C9 C10 120.0 . . ?
C11 C10 C9 120.0 . . ?
C11 C10 C1 118.9 . . ?
C9 C10 C1 121.1 . . ?
C10 C11 C12 120.0 . . ?
C7 C12 C11 120.0 . . ?
C14 C13 C18 120.0 . . ?
C14 C13 C19 118.8(4) . . ?
C18 C13 C19 120.7(4) . . ?
C15 C14 C13 120.0 . . ?
C14 C15 C16 120.0 . . ?
C15 C16 C17 120.0 . . ?
C15 C16 C7 116.8 . . ?
C17 C16 C7 123.2 . . ?
C18 C17 C16 120.0 . . ?
C17 C18 C13 120.0 . . ?
O1 C19 O2 122.2(8) . . ?
O1 C19 C13 117.2(7) . . ?
O2 C19 C13 112.9(7) . . ?
C21 C20 C25 120.0 . . ?
C21 C20 C3 115.2(3) . . ?
C25 C20 C3 124.8(3) . . ?
C20 C21 C22 120.0 . . ?
C21 C22 C23 120.0 . . ?
C24 C23 C22 120.0 . . ?
C24 C23 C26 125.4 . . ?
C22 C23 C26 114.5 . . ?
C25 C24 C23 120.0 . . ?
C24 C25 C20 120.0 . . ?
C31 C26 C27 120.0 . . ?
C31 C26 C23 108.7 . . ?
C27 C26 C23 131.2 . . ?
C28 C27 C26 120.0 . . ?
C27 C28 C29 120.0 . . ?
C28 C29 C30 120.0 . . ?
C28 C29 C32 108.6(4) . . ?
C30 C29 C32 131.4(4) . . ?
C29 C30 C31 120.0 . . ?
C26 C31 C30 120.0 . . ?
O3 C32 O4 127.6(8) . . ?
O3 C32 C29 110.8(6) . . ?
O4 C32 C29 121.6(6) . . ?
C34' C33 C38' 115.2(14) . . ?
C34' C33 C34 49.3(17) . . ?
C38' C33 C34 98.7(13) . . ?
C34' C33 C38 96.3(11) . . ?
C38' C33 C38 47.2(19) . . ?
C34 C33 C38 120.0 . . ?
C34' C33 C5 121.1(11) . . ?
C38' C33 C5 123.5(11) . . ?
C34 C33 C5 120.8(6) . . ?
C38 C33 C5 119.1(7) . . ?
C35 C34 C33 120.0 . . ?
C36 C35 C34 120.0 . . ?
C35' C36 C37' 113.6(16) . . ?
C35' C36 C35 49(2) . . ?
C37' C36 C35 106.4(15) . . ?
C35' C36 C37 96.4(13) . . ?
C37' C36 C37 36(3) . . ?
C35 C36 C37 120.0 . . ?
C35' C36 C39 120.5(16) . . ?
C37' C36 C39 122.8(12) . . ?
C35 C36 C39 122.2(7) . . ?
C37 C36 C39 117.6(8) . . ?
C38 C37 C36 120.0 . . ?
C37 C38 C33 120.0 . . ?
C33 C34' C35' 117.1(19) . . ?
C36 C35' C34' 129(2) . . ?
C36 C37' C38' 122.5(18) . . ?
C37' C38' C33 117(2) . . ?
C40 C39 C44 120.0 . . ?
C40 C39 C36 117.7(6) . . ?
C44 C39 C36 122.0(6) . . ?
C39 C40 C41 120.0 . . ?
C42 C41 C40 120.0 . . ?
C41 C42 C43 120.0 . . ?
C41 C42 C45 116.0(5) . . ?
C43 C42 C45 123.4(5) . . ?
C42 C43 C44 120.0 . . ?
C43 C44 C39 120.0 . . ?
O6' C45 O5' 126.5(12) . . ?
O6' C45 O5 76.4(10) . . ?
O5' C45 O5 63.2(7) . . ?
O6' C45 O6 60.7(8) . . ?
O5' C45 O6 103.3(10) . . ?
O5 C45 O6 112.4(9) . . ?
O6' C45 C42 120.9(10) . . ?
O5' C45 C42 108.9(8) . . ?
O5 C45 C42 118.2(8) . . ?
O6 C45 C42 128.0(7) . . ?
O7 C46 O7 128.8(9) . 5 ?
O7 C46 C47 115.6(5) . . ?
O7 C46 C47 115.6(5) 5 . ?
C48 C47 C48 116.3(9) 5 . ?
C48 C47 C46 121.8(5) 5 . ?
C48 C47 C46 121.8(5) . . ?
C47 C48 C49 122.8(6) . . ?
C48 C49 C50 121.9(6) . . ?
C49 C50 C49 114.1(9) . 5 ?
C49 C50 C51 122.9(4) . . ?
C49 C50 C51 122.9(4) 5 . ?
C52 C51 C52 116.9(9) . 5 ?
C52 C51 C50 121.5(4) . . ?
C52 C51 C50 121.5(5) 5 . ?
C51 C52 C53 121.2(6) . . ?
C54 C53 C52 120.6(7) . . ?
C53 C54 C53 118.3(10) . 5 ?
C53 C54 C55 120.9(5) . . ?
C53 C54 C55 120.9(5) 5 . ?
C56 C55 C56 119.9(7) . 3_565 ?
C56 C55 C54 120.0(4) . . ?
C56 C55 C54 120.0(4) 3_565 . ?
C55 C56 C55 120.1(7) 2_665 . ?
O8 C57 O8 128.2(19) . 5 ?
O8 C57 C58 115.9(9) . . ?
O8 C57 C58 115.9(9) 5 . ?
C59 C58 C59 122.7(10) . 5 ?
C59 C58 C57 118.7(5) . . ?
C59 C58 C57 118.7(5) 5 . ?
C58 C59 C60 118.4(7) . . ?
C61 C60 C59 121.5(8) . . ?
C60 C61 C60 117.3(12) 5 . ?
C60 C61 C62 121.3(6) 5 . ?
C60 C61 C62 121.3(6) . . ?
C63 C62 C63 117.7(10) . 5 ?
C63 C62 C61 121.1(5) . . ?
C63 C62 C61 121.1(5) 5 . ?
C62 C63 C64 120.8(7) . . ?
C65 C64 C63 118.8(7) . . ?
C64 C65 C64 122.2(10) 5 . ?
C64 C65 C66 118.9(5) 5 . ?
C64 C65 C66 118.9(5) . . ?
C67 C66 C67 120.8(7) 2 . ?
C67 C66 C65 119.6(4) 2 . ?
C67 C66 C65 119.6(4) . . ?
C66 C67 C66 119.2(7) 3 . ?

loop_
_geom_torsion_atom_site_label_1
_geom_torsion_atom_site_label_2
_geom_torsion_atom_site_label_3
_geom_torsion_atom_site_label_4
_geom_torsion
_geom_torsion_site_symmetry_1
_geom_torsion_site_symmetry_2
_geom_torsion_site_symmetry_3
_geom_torsion_site_symmetry_4
_geom_torsion_publ_flag
O12 Zn1 Zn2 O11 103.4(2) . . . . ?
O10 Zn1 Zn2 O11 106.8(2) . . . . ?
O2 Zn1 Zn2 O11 -87.9(2) . . . . ?
O3 Zn1 Zn2 O11 17.0(3) 10 . . . ?
O7 Zn1 Zn2 O11 173.2(3) . . . . ?
Zn1 Zn1 Zn2 O11 139.8(2) 5 . . . ?
O12 Zn1 Zn2 O8 74.8(4) . . . . ?
O10 Zn1 Zn2 O8 78.3(4) . . . . ?
O2 Zn1 Zn2 O8 -116.4(3) . . . . ?
O3 Zn1 Zn2 O8 -11.6(4) 10 . . . ?
O7 Zn1 Zn2 O8 144.6(4) . . . . ?
O11 Zn1 Zn2 O8 -28.5(4) . . . . ?
Zn1 Zn1 Zn2 O8 111.2(3) 5 . . . ?
O12 Zn1 Zn2 O4 -72.1(2) . . . 9_556 ?
O10 Zn1 Zn2 O4 -68.6(2) . . . 9_556 ?
O2 Zn1 Zn2 O4 96.7(2) . . . 9_556 ?
O3 Zn1 Zn2 O4 -158.5(2) 10 . . 9_556 ?
O7 Zn1 Zn2 O4 -2.3(2) . . . 9_556 ?
O11 Zn1 Zn2 O4 -175.4(3) . . . 9_556 ?
Zn1 Zn1 Zn2 O4 -35.67(15) 5 . . 9_556 ?
O12 Zn1 Zn2 O1 -166.6(2) . . . . ?
O10 Zn1 Zn2 O1 -163.1(2) . . . . ?
O2 Zn1 Zn2 O1 2.2(2) . . . . ?
O3 Zn1 Zn2 O1 107.0(2) 10 . . . ?
O7 Zn1 Zn2 O1 -96.8(2) . . . . ?
O11 Zn1 Zn2 O1 90.1(3) . . . . ?
Zn1 Zn1 Zn2 O1 -130.17(17) 5 . . . ?
O12 Zn1 Zn2 O10 -3.45(19) . . . . ?
O2 Zn1 Zn2 O10 165.30(18) . . . . ?
O3 Zn1 Zn2 O10 -89.9(2) 10 . . . ?
O7 Zn1 Zn2 O10 66.4(2) . . . . ?
O11 Zn1 Zn2 O10 -106.8(2) . . . . ?
Zn1 Zn1 Zn2 O10 32.95(13) 5 . . . ?
O11 Zn2 O1 C19 57.7(9) . . . . ?
O8 Zn2 O1 C19 134.6(9) . . . . ?
O4 Zn2 O1 C19 -105.6(9) 9_556 . . . ?
O10 Zn2 O1 C19 5.1(9) . . . . ?
Zn1 Zn2 O1 C19 15.0(9) . . . . ?
O12 Zn1 O2 C19 73.7(14) . . . . ?
O10 Zn1 O2 C19 -8.2(6) . . . . ?
O3 Zn1 O2 C19 -138.5(6) 10 . . . ?
O7 Zn1 O2 C19 109.4(6) . . . . ?
O11 Zn1 O2 C19 -54.1(6) . . . . ?
Zn1 Zn1 O2 C19 29.2(6) 5 . . . ?
Zn2 Zn1 O2 C19 -17.6(6) . . . . ?
O9 Zn4 O5 C45 -2.1(11) . . . . ?
Zn3 Zn4 O5 C45 82(3) 5_556 . . . ?
Zn3 Zn4 O5 C45 -60.7(10) 4_666 . . . ?
Zn3 Zn4 O5 C45 51.2(10) 6_566 . . . ?
O5 Zn4 O5 C45 -125.7(12) 3_565 . . . ?
O5 Zn4 O5 C45 121.5(11) 2_665 . . . ?
O9 Zn4 O5 Zn3 -53.24(15) . . . 6_566 ?
Zn3 Zn4 O5 Zn3 31(3) 5_556 . . 6_566 ?
Zn3 Zn4 O5 Zn3 -111.87(13) 4_666 . . 6_566 ?
O5 Zn4 O5 Zn3 -176.9(3) 3_565 . . 6_566 ?
O5 Zn4 O5 Zn3 70.4(3) 2_665 . . 6_566 ?
O12 Zn1 O7 C46 80.5(4) . . . . ?
O10 Zn1 O7 C46 28.3(4) . . . . ?
O2 Zn1 O7 C46 -92.6(4) . . . . ?
O3 Zn1 O7 C46 152.6(4) 10 . . . ?
O11 Zn1 O7 C46 7.3(9) . . . . ?
Zn1 Zn1 O7 C46 23.0(4) 5 . . . ?
Zn2 Zn1 O7 C46 -6.8(5) . . . . ?
O11 Zn2 O8 C57 -53.0(7) . . . . ?
O4 Zn2 O8 C57 116.9(7) 9_556 . . . ?
O1 Zn2 O8 C57 -124.5(7) . . . . ?
O10 Zn2 O8 C57 2.3(8) . . . . ?
Zn1 Zn2 O8 C57 -34.6(9) . . . . ?
Zn3 Zn4 O9 Zn4 85(29) 5_556 . . 4_666 ?
Zn3 Zn4 O9 Zn4 -35(42) 4_666 . . 4_666 ?
Zn3 Zn4 O9 Zn4 -155(42) 6_566 . . 4_666 ?
O5 Zn4 O9 Zn4 20(29) 3_565 . . 4_666 ?
O5 Zn4 O9 Zn4 140(29) 2_665 . . 4_666 ?
O5 Zn4 O9 Zn4 -100(42) . . . 4_666 ?
Zn3 Zn4 O9 Zn3 -120.0 4_666 . . 5_556 ?
Zn3 Zn4 O9 Zn3 120.0 6_566 . . 5_556 ?
O5 Zn4 O9 Zn3 -65.0(3) 3_565 . . 5_556 ?
O5 Zn4 O9 Zn3 55.0(3) 2_665 . . 5_556 ?
O5 Zn4 O9 Zn3 175.0(3) . . . 5_556 ?
Zn3 Zn4 O9 Zn3 76.33(7) 5_556 . . 2_665 ?
Zn3 Zn4 O9 Zn3 -43.67(7) 4_666 . . 2_665 ?
Zn3 Zn4 O9 Zn3 -163.67(7) 6_566 . . 2_665 ?
O5 Zn4 O9 Zn3 11.3(3) 3_565 . . 2_665 ?
O5 Zn4 O9 Zn3 131.3(3) 2_665 . . 2_665 ?
O5 Zn4 O9 Zn3 -108.7(3) . . . 2_665 ?
Zn3 Zn4 O9 Zn3 -43.67(7) 5_556 . . . ?
Zn3 Zn4 O9 Zn3 -163.67(7) 4_666 . . . ?
Zn3 Zn4 O9 Zn3 76.33(7) 6_566 . . . ?
O5 Zn4 O9 Zn3 -108.7(3) 3_565 . . . ?
O5 Zn4 O9 Zn3 11.3(3) 2_665 . . . ?
O5 Zn4 O9 Zn3 131.3(3) . . . . ?
Zn3 Zn4 O9 Zn3 120.0 5_556 . . 4_666 ?
Zn3 Zn4 O9 Zn3 -120.0 6_566 . . 4_666 ?
O5 Zn4 O9 Zn3 55.0(3) 3_565 . . 4_666 ?
O5 Zn4 O9 Zn3 175.0(3) 2_665 . . 4_666 ?
O5 Zn4 O9 Zn3 -65.0(3) . . . 4_666 ?
Zn3 Zn4 O9 Zn3 -120.0 5_556 . . 6_566 ?
Zn3 Zn4 O9 Zn3 120.0 4_666 . . 6_566 ?
O5 Zn4 O9 Zn3 175.0(3) 3_565 . . 6_566 ?
O5 Zn4 O9 Zn3 -65.0(3) 2_665 . . 6_566 ?
O5 Zn4 O9 Zn3 55.0(3) . . . 6_566 ?
Zn3 Zn4 O9 Zn3 -163.67(7) 5_556 . . 3_565 ?
Zn3 Zn4 O9 Zn3 76.33(7) 4_666 . . 3_565 ?
Zn3 Zn4 O9 Zn3 -43.67(7) 6_566 . . 3_565 ?
O5 Zn4 O9 Zn3 131.3(3) 3_565 . . 3_565 ?
O5 Zn4 O9 Zn3 -108.7(3) 2_665 . . 3_565 ?
O5 Zn4 O9 Zn3 11.3(3) . . . 3_565 ?
O6' Zn3 O9 Zn4 -74.0(5) 6_566 . . 4_666 ?
O5' Zn3 O9 Zn4 65.6(4) 4_666 . . 4_666 ?
O6 Zn3 O9 Zn4 175.1(3) 2_665 . . 4_666 ?
O6 Zn3 O9 Zn4 -98.1(2) 6_566 . . 4_666 ?
Zn3 Zn3 O9 Zn4 -138.51(6) 5_556 . . 4_666 ?
O5 Zn3 O9 Zn4 -42.4(2) 6_566 . . 4_666 ?
Zn3 Zn3 O9 Zn4 119.96(4) 6_566 . . 4_666 ?
Zn3 Zn3 O9 Zn4 51.88(3) 3_565 . . 4_666 ?
Zn3 Zn3 O9 Zn4 -51.88(3) 2_665 . . 4_666 ?
O6' Zn3 O9 Zn4 106.0(5) 6_566 . . . ?
O5' Zn3 O9 Zn4 -114.4(4) 4_666 . . . ?
Zn4 Zn3 O9 Zn4 180.0 4_666 . . . ?
O6 Zn3 O9 Zn4 -4.9(3) 2_665 . . . ?
O6 Zn3 O9 Zn4 81.9(2) 6_566 . . . ?
Zn3 Zn3 O9 Zn4 41.49(6) 5_556 . . . ?
O5 Zn3 O9 Zn4 137.6(2) 6_566 . . . ?
Zn3 Zn3 O9 Zn4 -60.04(4) 6_566 . . . ?
Zn3 Zn3 O9 Zn4 -128.12(3) 3_565 . . . ?
Zn3 Zn3 O9 Zn4 128.12(3) 2_665 . . . ?
O6' Zn3 O9 Zn3 64.5(5) 6_566 . . 5_556 ?
O5' Zn3 O9 Zn3 -155.8(4) 4_666 . . 5_556 ?
Zn4 Zn3 O9 Zn3 138.51(6) 4_666 . . 5_556 ?
O6 Zn3 O9 Zn3 -46.4(3) 2_665 . . 5_556 ?
O6 Zn3 O9 Zn3 40.4(2) 6_566 . . 5_556 ?
O5 Zn3 O9 Zn3 96.1(2) 6_566 . . 5_556 ?
Zn3 Zn3 O9 Zn3 -101.52(6) 6_566 . . 5_556 ?
Zn3 Zn3 O9 Zn3 -169.61(5) 3_565 . . 5_556 ?
Zn3 Zn3 O9 Zn3 86.64(8) 2_665 . . 5_556 ?
O6' Zn3 O9 Zn3 -22.2(5) 6_566 . . 2_665 ?
O5' Zn3 O9 Zn3 117.5(4) 4_666 . . 2_665 ?
Zn4 Zn3 O9 Zn3 51.88(3) 4_666 . . 2_665 ?
O6 Zn3 O9 Zn3 -133.0(3) 2_665 . . 2_665 ?
O6 Zn3 O9 Zn3 -46.2(2) 6_566 . . 2_665 ?
Zn3 Zn3 O9 Zn3 -86.64(8) 5_556 . . 2_665 ?
O5 Zn3 O9 Zn3 9.5(2) 6_566 . . 2_665 ?
Zn3 Zn3 O9 Zn3 171.84(3) 6_566 . . 2_665 ?
Zn3 Zn3 O9 Zn3 103.75(6) 3_565 . . 2_665 ?
O6' Zn3 O9 Zn3 19.7(5) 6_566 . . 4_666 ?
O5' Zn3 O9 Zn3 159.4(4) 4_666 . . 4_666 ?
Zn4 Zn3 O9 Zn3 93.719(16) 4_666 . . 4_666 ?
O6 Zn3 O9 Zn3 -91.1(3) 2_665 . . 4_666 ?
O6 Zn3 O9 Zn3 -4.4(2) 6_566 . . 4_666 ?
Zn3 Zn3 O9 Zn3 -44.79(4) 5_556 . . 4_666 ?
O5 Zn3 O9 Zn3 51.3(2) 6_566 . . 4_666 ?
Zn3 Zn3 O9 Zn3 -146.32(4) 6_566 . . 4_666 ?
Zn3 Zn3 O9 Zn3 145.59(3) 3_565 . . 4_666 ?
Zn3 Zn3 O9 Zn3 41.84(4) 2_665 . . 4_666 ?
O6' Zn3 O9 Zn3 166.0(5) 6_566 . . 6_566 ?
O5' Zn3 O9 Zn3 -54.3(4) 4_666 . . 6_566 ?
Zn4 Zn3 O9 Zn3 -119.96(4) 4_666 . . 6_566 ?
O6 Zn3 O9 Zn3 55.2(3) 2_665 . . 6_566 ?
O6 Zn3 O9 Zn3 142.0(2) 6_566 . . 6_566 ?
Zn3 Zn3 O9 Zn3 101.52(6) 5_556 . . 6_566 ?
O5 Zn3 O9 Zn3 -162.4(2) 6_566 . . 6_566 ?
Zn3 Zn3 O9 Zn3 -68.09(7) 3_565 . . 6_566 ?
Zn3 Zn3 O9 Zn3 -171.84(3) 2_665 . . 6_566 ?
O6' Zn3 O9 Zn3 -125.9(5) 6_566 . . 3_565 ?
O5' Zn3 O9 Zn3 13.8(4) 4_666 . . 3_565 ?
Zn4 Zn3 O9 Zn3 -51.88(3) 4_666 . . 3_565 ?
O6 Zn3 O9 Zn3 123.3(3) 2_665 . . 3_565 ?
O6 Zn3 O9 Zn3 -150.0(2) 6_566 . . 3_565 ?
Zn3 Zn3 O9 Zn3 169.61(5) 5_556 . . 3_565 ?
O5 Zn3 O9 Zn3 -94.3(2) 6_566 . . 3_565 ?
Zn3 Zn3 O9 Zn3 68.09(7) 6_566 . . 3_565 ?
Zn3 Zn3 O9 Zn3 -103.75(6) 2_665 . . 3_565 ?
O12 Zn1 O10 Zn1 -61.87(14) . . . 5 ?
O2 Zn1 O10 Zn1 106.18(13) . . . 5 ?
O3 Zn1 O10 Zn1 -127.03(14) 10 . . 5 ?
O7 Zn1 O10 Zn1 -9.20(13) . . . 5 ?
O11 Zn1 O10 Zn1 163.82(12) . . . 5 ?
Zn2 Zn1 O10 Zn1 121.82(11) . . . 5 ?
O12 Zn1 O10 Zn2 176.3(2) . . . . ?
O2 Zn1 O10 Zn2 -15.64(19) . . . . ?
O3 Zn1 O10 Zn2 111.15(15) 10 . . . ?
O7 Zn1 O10 Zn2 -131.02(16) . . . . ?
O11 Zn1 O10 Zn2 42.00(15) . . . . ?
Zn1 Zn1 O10 Zn2 -121.82(11) 5 . . . ?
O12 Zn1 O10 Zn2 59.19(16) . . . 5 ?
O2 Zn1 O10 Zn2 -132.75(15) . . . 5 ?
O3 Zn1 O10 Zn2 -6.0(2) 10 . . 5 ?
O7 Zn1 O10 Zn2 111.87(17) . . . 5 ?
O11 Zn1 O10 Zn2 -75.11(17) . . . 5 ?
Zn1 Zn1 O10 Zn2 121.07(11) 5 . . 5 ?
Zn2 Zn1 O10 Zn2 -117.1(2) . . . 5 ?
O11 Zn2 O10 Zn1 -47.16(14) . . . . ?
O8 Zn2 O10 Zn1 -119.6(3) . . . . ?
O4 Zn2 O10 Zn1 125.66(16) 9_556 . . . ?
O1 Zn2 O10 Zn1 16.6(2) . . . . ?
O11 Zn2 O10 Zn1 -170.3(2) . . . 5 ?
O8 Zn2 O10 Zn1 117.2(3) . . . 5 ?
O4 Zn2 O10 Zn1 2.48(19) 9_556 . . 5 ?
O1 Zn2 O10 Zn1 -106.57(19) . . . 5 ?
Zn1 Zn2 O10 Zn1 -123.2(2) . . . 5 ?
O11 Zn2 O10 Zn2 71.68(14) . . . 5 ?
O8 Zn2 O10 Zn2 -0.7(3) . . . 5 ?
O4 Zn2 O10 Zn2 -115.50(14) 9_556 . . 5 ?
O1 Zn2 O10 Zn2 135.45(17) . . . 5 ?
Zn1 Zn2 O10 Zn2 118.84(11) . . . 5 ?
O8 Zn2 O11 Zn1 156.7(3) . . . . ?
O4 Zn2 O11 Zn1 13.8(7) 9_556 . . . ?
O1 Zn2 O11 Zn1 -77.7(2) . . . . ?
O10 Zn2 O11 Zn1 39.34(15) . . . . ?
O12 Zn1 O11 Zn2 -86.4(2) . . . . ?
O10 Zn1 O11 Zn2 -43.18(14) . . . . ?
O2 Zn1 O11 Zn2 84.5(2) . . . . ?
O3 Zn1 O11 Zn2 -165.8(2) 10 . . . ?
O7 Zn1 O11 Zn2 -19.1(7) . . . . ?
Zn1 Zn1 O11 Zn2 -34.24(16) 5 . . . ?
C6 C1 C2 C3 0.0 . . . . ?
C10 C1 C2 C3 -176.2 . . . . ?
C1 C2 C3 C4 0.0 . . . . ?
C1 C2 C3 C20 -179.7(4) . . . . ?
C2 C3 C4 C5 0.0 . . . . ?
C20 C3 C4 C5 179.7(4) . . . . ?
C3 C4 C5 C6 0.0 . . . . ?
C3 C4 C5 C33 -176.9(5) . . . . ?
C4 C5 C6 C1 0.0 . . . . ?
C33 C5 C6 C1 176.9(5) . . . . ?
C2 C1 C6 C5 0.0 . . . . ?
C10 C1 C6 C5 176.2 . . . . ?
C12 C7 C8 C9 0.0 . . . . ?
C16 C7 C8 C9 177.2 . . . . ?
C7 C8 C9 C10 0.0 . . . . ?
C8 C9 C10 C11 0.0 . . . . ?
C8 C9 C10 C1 -178.8 . . . . ?
C2 C1 C10 C11 -148.1 . . . . ?
C6 C1 C10 C11 35.7 . . . . ?
C2 C1 C10 C9 30.8 . . . . ?
C6 C1 C10 C9 -145.4 . . . . ?
C9 C10 C11 C12 0.0 . . . . ?
C1 C10 C11 C12 178.9 . . . . ?
C8 C7 C12 C11 0.0 . . . . ?
C16 C7 C12 C11 -177.1 . . . . ?
C10 C11 C12 C7 0.0 . . . . ?
C18 C13 C14 C15 0.0 . . . . ?
C19 C13 C14 C15 -171.9(4) . . . . ?
C13 C14 C15 C16 0.0 . . . . ?
C14 C15 C16 C17 0.0 . . . . ?
C14 C15 C16 C7 177.0 . . . . ?
C12 C7 C16 C15 -141.4 . . . . ?
C8 C7 C16 C15 41.4 . . . . ?
C12 C7 C16 C17 35.4 . . . . ?
C8 C7 C16 C17 -141.7 . . . . ?
C15 C16 C17 C18 0.0 . . . . ?
C7 C16 C17 C18 -176.8 . . . . ?
C16 C17 C18 C13 0.0 . . . . ?
C14 C13 C18 C17 0.0 . . . . ?
C19 C13 C18 C17 171.8(4) . . . . ?
Zn2 O1 C19 O2 -34.1(15) . . . . ?
Zn2 O1 C19 C13 178.7(4) . . . . ?
Zn1 O2 C19 O1 34.1(12) . . . . ?
Zn1 O2 C19 C13 -177.5(3) . . . . ?
C14 C13 C19 O1 -17.7(9) . . . . ?
C18 C13 C19 O1 170.5(6) . . . . ?
C14 C13 C19 O2 -167.8(5) . . . . ?
C18 C13 C19 O2 20.4(8) . . . . ?
C2 C3 C20 C21 -17.8(4) . . . . ?
C4 C3 C20 C21 162.5(2) . . . . ?
C2 C3 C20 C25 164.59(18) . . . . ?
C4 C3 C20 C25 -15.1(4) . . . . ?
C25 C20 C21 C22 0.0 . . . . ?
C3 C20 C21 C22 -177.7(3) . . . . ?
C20 C21 C22 C23 0.0 . . . . ?
C21 C22 C23 C24 0.0 . . . . ?
C21 C22 C23 C26 -176.3 . . . . ?
C22 C23 C24 C25 0.0 . . . . ?
C26 C23 C24 C25 175.9 . . . . ?
C23 C24 C25 C20 0.0 . . . . ?
C21 C20 C25 C24 0.0 . . . . ?
C3 C20 C25 C24 177.5(4) . . . . ?
C24 C23 C26 C31 -0.6 . . . . ?
C22 C23 C26 C31 175.6 . . . . ?
C24 C23 C26 C27 174.9 . . . . ?
C22 C23 C26 C27 -9.0 . . . . ?
C31 C26 C27 C28 0.0 . . . . ?
C23 C26 C27 C28 -175.1 . . . . ?
C26 C27 C28 C29 0.0 . . . . ?
C27 C28 C29 C30 0.0 . . . . ?
C27 C28 C29 C32 179.3(4) . . . . ?
C28 C29 C30 C31 0.0 . . . . ?
C32 C29 C30 C31 -179.2(5) . . . . ?
C27 C26 C31 C30 0.0 . . . . ?
C23 C26 C31 C30 176.1 . . . . ?
C29 C30 C31 C26 0.0 . . . . ?
Zn1 O3 C32 O4 -0.3(11) 10_556 . . . ?
Zn1 O3 C32 C29 -179.7(3) 10_556 . . . ?
Zn2 O4 C32 O3 6.1(13) 8_556 . . . ?
Zn2 O4 C32 C29 -174.6(4) 8_556 . . . ?
C28 C29 C32 O3 174.6(5) . . . . ?
C30 C29 C32 O3 -6.2(8) . . . . ?
C28 C29 C32 O4 -4.8(8) . . . . ?
C30 C29 C32 O4 174.4(5) . . . . ?
C4 C5 C33 C34' -25(2) . . . . ?
C6 C5 C33 C34' 159(2) . . . . ?
C4 C5 C33 C38' 161(2) . . . . ?
C6 C5 C33 C38' -16(2) . . . . ?
C4 C5 C33 C34 33.6(10) . . . . ?
C6 C5 C33 C34 -143.3(8) . . . . ?
C4 C5 C33 C38 -143.4(8) . . . . ?
C6 C5 C33 C38 39.7(9) . . . . ?
C34' C33 C34 C35 -70.7(10) . . . . ?
C38' C33 C34 C35 45.1(16) . . . . ?
C38 C33 C34 C35 0.0 . . . . ?
C5 C33 C34 C35 -177.0(8) . . . . ?
C33 C34 C35 C36 0.0 . . . . ?
C34 C35 C36 C35' 70.2(12) . . . . ?
C34 C35 C36 C37' -37(3) . . . . ?
C34 C35 C36 C37 0.0 . . . . ?
C34 C35 C36 C39 174.3(10) . . . . ?
C35' C36 C37 C38 -45.2(18) . . . . ?
C37' C36 C37 C38 76.6(14) . . . . ?
C35 C36 C37 C38 0.0 . . . . ?
C39 C36 C37 C38 -174.6(10) . . . . ?
C36 C37 C38 C33 0.0 . . . . ?
C34' C33 C38 C37 46.0(15) . . . . ?
C38' C33 C38 C37 -72.7(12) . . . . ?
C34 C33 C38 C37 0.0 . . . . ?
C5 C33 C38 C37 177.1(8) . . . . ?
C38' C33 C34' C35' -3(5) . . . . ?
C34 C33 C34' C35' 76(4) . . . . ?
C38 C33 C34' C35' -48(4) . . . . ?
C5 C33 C34' C35' -178(3) . . . . ?
C37' C36 C35' C34' 13(6) . . . . ?
C35 C36 C35' C34' -78(5) . . . . ?
C37 C36 C35' C34' 47(5) . . . . ?
C39 C36 C35' C34' 174(4) . . . . ?
C33 C34' C35' C36 1(7) . . . . ?
C35' C36 C37' C38' -27(7) . . . . ?
C35 C36 C37' C38' 25(6) . . . . ?
C37 C36 C37' C38' -94(6) . . . . ?
C39 C36 C37' C38' 173(4) . . . . ?
C36 C37' C38' C33 25(8) . . . . ?
C34' C33 C38' C37' -9(5) . . . . ?
C34 C33 C38' C37' -58(4) . . . . ?
C38 C33 C38' C37' 65(4) . . . . ?
C5 C33 C38' C37' 166(3) . . . . ?
C35' C36 C39 C40 66(3) . . . . ?
C37' C36 C39 C40 -135(3) . . . . ?
C35 C36 C39 C40 8.6(12) . . . . ?
C37 C36 C39 C40 -176.9(8) . . . . ?
C35' C36 C39 C44 -120(2) . . . . ?
C37' C36 C39 C44 39(3) . . . . ?
C35 C36 C39 C44 -177.6(8) . . . . ?
C37 C36 C39 C44 -3.1(11) . . . . ?
C44 C39 C40 C41 0.0 . . . . ?
C36 C39 C40 C41 173.9(8) . . . . ?
C39 C40 C41 C42 0.0 . . . . ?
C40 C41 C42 C43 0.0 . . . . ?
C40 C41 C42 C45 171.2(6) . . . . ?
C41 C42 C43 C44 0.0 . . . . ?
C45 C42 C43 C44 -170.5(7) . . . . ?
C42 C43 C44 C39 0.0 . . . . ?
C40 C39 C44 C43 0.0 . . . . ?
C36 C39 C44 C43 -173.6(8) . . . . ?
Zn3 O6' C45 O5' 13(2) 6_566 . . . ?
Zn3 O6' C45 O5 54.2(15) 6_566 . . . ?
Zn3 O6' C45 O6 -71.7(14) 6_566 . . . ?
Zn3 O6' C45 C42 169.2(8) 6_566 . . . ?
Zn3 O5' C45 O6' -24(2) 4_666 . . . ?
Zn3 O5' C45 O5 -69.4(12) 4_666 . . . ?
Zn3 O5' C45 O6 39.3(16) 4_666 . . . ?
Zn3 O5' C45 C42 177.9(9) 4_666 . . . ?
Zn4 O5 C45 O6' -66.9(11) . . . . ?
Zn3 O5 C45 O6' -28.6(8) 6_566 . . . ?
Zn4 O5 C45 O5' 77.0(9) . . . . ?
Zn3 O5 C45 O5' 115.3(6) 6_566 . . . ?
Zn4 O5 C45 O6 -17.0(16) . . . . ?
Zn3 O5 C45 O6 21.3(10) 6_566 . . . ?
Zn4 O5 C45 C42 175.1(5) . . . . ?
Zn3 O5 C45 C42 -146.6(7) 6_566 . . . ?
Zn3 O6 C45 O6' 91.6(13) 3_565 . . . ?
Zn3 O6 C45 O6' 36.0(7) 6_566 . . . ?
Zn3 O6 C45 O5' -33.0(18) 3_565 . . . ?
Zn3 O6 C45 O5' -88.6(10) 6_566 . . . ?
Zn3 O6 C45 O5 33.1(19) 3_565 . . . ?
Zn3 O6 C45 O5 -22.5(10) 6_566 . . . ?
Zn3 O6 C45 C42 -160.4(8) 3_565 . . . ?
Zn3 O6 C45 C42 144.0(9) 6_566 . . . ?
C41 C42 C45 O6' 40.8(14) . . . . ?
C43 C42 C45 O6' -148.4(12) . . . . ?
C41 C42 C45 O5' -159.6(9) . . . . ?
C43 C42 C45 O5' 11.3(12) . . . . ?
C41 C42 C45 O5 131.4(9) . . . . ?
C43 C42 C45 O5 -57.8(12) . . . . ?
C41 C42 C45 O6 -34.3(14) . . . . ?
C43 C42 C45 O6 136.5(10) . . . . ?
Zn1 O7 C46 O7 -15.8(2) . . . 5 ?
Zn1 O7 C46 C47 164.2(2) . . . . ?
O7 C46 C47 C48 -178.1(4) . . . 5 ?
O7 C46 C47 C48 1.9(4) 5 . . 5 ?
O7 C46 C47 C48 1.9(4) . . . . ?
O7 C46 C47 C48 -178.1(4) 5 . . . ?
C48 C47 C48 C49 0.0(6) 5 . . . ?
C46 C47 C48 C49 -180.0(6) . . . . ?
C47 C48 C49 C50 0.0(12) . . . . ?
C48 C49 C50 C49 0.0(6) . . . 5 ?
C48 C49 C50 C51 -180.0(6) . . . . ?
C49 C50 C51 C52 5.2(9) . . . . ?
C49 C50 C51 C52 -174.8(9) 5 . . . ?
C49 C50 C51 C52 -174.8(9) . . . 5 ?
C49 C50 C51 C52 5.2(9) 5 . . 5 ?
C52 C51 C52 C53 4.8(11) 5 . . . ?
C50 C51 C52 C53 -175.2(11) . . . . ?
C51 C52 C53 C54 -10(2) . . . . ?
C52 C53 C54 C53 4.8(11) . . . 5 ?
C52 C53 C54 C55 -175.2(11) . . . . ?
C53 C54 C55 C56 -5.8(7) . . . . ?
C53 C54 C55 C56 174.2(7) 5 . . . ?
C53 C54 C55 C56 174.2(7) . . . 3_565 ?
C53 C54 C55 C56 -5.8(7) 5 . . 3_565 ?
C56 C55 C56 C55 0.0 3_565 . . 2_665 ?
C54 C55 C56 C55 180.0 . . . 2_665 ?
Zn2 O8 C57 O8 -1.3(5) . . . 5 ?
Zn2 O8 C57 C58 178.7(5) . . . . ?
O8 C57 C58 C59 177.4(8) . . . . ?
O8 C57 C58 C59 -2.6(8) 5 . . . ?
O8 C57 C58 C59 -2.6(8) . . . 5 ?
O8 C57 C58 C59 177.4(8) 5 . . 5 ?
C59 C58 C59 C60 1.6(9) 5 . . . ?
C57 C58 C59 C60 -178.4(9) . . . . ?
C58 C59 C60 C61 -3.2(18) . . . . ?
C59 C60 C61 C60 1.6(9) . . . 5 ?
C59 C60 C61 C62 -178.4(9) . . . . ?
C60 C61 C62 C63 64.9(9) 5 . . . ?
C60 C61 C62 C63 -115.1(9) . . . . ?
C60 C61 C62 C63 -115.1(9) 5 . . 5 ?
C60 C61 C62 C63 64.9(9) . . . 5 ?
C63 C62 C63 C64 4.3(7) 5 . . . ?
C61 C62 C63 C64 -175.7(7) . . . . ?
C62 C63 C64 C65 -8.6(14) . . . . ?
C63 C64 C65 C64 4.2(7) . . . 5 ?
C63 C64 C65 C66 -175.8(7) . . . . ?
C64 C65 C66 C67 -158.9(6) 5 . . 2 ?
C64 C65 C66 C67 21.1(6) . . . 2 ?
C64 C65 C66 C67 21.1(6) 5 . . . ?
C64 C65 C66 C67 -158.9(6) . . . . ?
C67 C66 C67 C66 0.0 2 . . 3 ?
C65 C66 C67 C66 180.0 . . . 3 ?

_diffrn_measured_fraction_theta_max 0.995
_diffrn_reflns_theta_full        18.14
_diffrn_measured_fraction_theta_full 0.995
_refine_diff_density_max         0.253
_refine_diff_density_min         -0.321
_refine_diff_density_rms         0.025

# SQUEEZE RESULTS (APPEND TO CIF)
loop_
_platon_squeeze_void_nr
_platon_squeeze_void_average_x
_platon_squeeze_void_average_y
_platon_squeeze_void_average_z
_platon_squeeze_void_volume
_platon_squeeze_void_count_electrons
1 -0.006 -0.004 -0.001 88444.1 10710.6
_platon_squeeze_details          
;
;
